c colouring generated by benchmark framework
p edge 500 112437
v 1 178
v 2 121
v 3 16
v 4 98
v 5 127
v 6 100
v 7 157
v 8 41
v 9 15
v 10 28
v 11 136
v 12 5
v 13 135
v 14 14
v 15 147
v 16 85
v 17 1
v 18 102
v 19 140
v 20 47
v 21 62
v 22 22
v 23 23
v 24 146
v 25 56
v 26 37
v 27 168
v 28 18
v 29 5
v 30 20
v 31 79
v 32 15
v 33 104
v 34 78
v 35 188
v 36 1
v 37 16
v 38 23
v 39 125
v 40 100
v 41 102
v 42 155
v 43 19
v 44 96
v 45 147
v 46 66
v 47 39
v 48 93
v 49 32
v 50 49
v 51 78
v 52 89
v 53 115
v 54 41
v 55 99
v 56 38
v 57 131
v 58 69
v 59 88
v 60 63
v 61 61
v 62 110
v 63 185
v 64 32
v 65 4
v 66 63
v 67 45
v 68 65
v 69 51
v 70 33
v 71 42
v 72 176
v 73 107
v 74 48
v 75 94
v 76 43
v 77 119
v 78 117
v 79 13
v 80 96
v 81 152
v 82 69
v 83 9
v 84 87
v 85 55
v 86 68
v 87 65
v 88 4
v 89 30
v 90 40
v 91 73
v 92 110
v 93 74
v 94 69
v 95 63
v 96 12
v 97 150
v 98 91
v 99 47
v 100 4
v 101 29
v 102 174
v 103 19
v 104 166
v 105 22
v 106 11
v 107 30
v 108 190
v 109 39
v 110 76
v 111 187
v 112 119
v 113 65
v 114 46
v 115 8
v 116 33
v 117 96
v 118 118
v 119 46
v 120 10
v 121 26
v 122 9
v 123 17
v 124 29
v 125 11
v 126 70
v 127 77
v 128 61
v 129 180
v 130 84
v 131 55
v 132 56
v 133 6
v 134 54
v 135 196
v 136 101
v 137 58
v 138 136
v 139 122
v 140 79
v 141 53
v 142 116
v 143 132
v 144 142
v 145 35
v 146 38
v 147 24
v 148 108
v 149 141
v 150 93
v 151 87
v 152 8
v 153 54
v 154 105
v 155 173
v 156 9
v 157 24
v 158 35
v 159 101
v 160 35
v 161 92
v 162 99
v 163 157
v 164 114
v 165 153
v 166 98
v 167 62
v 168 123
v 169 17
v 170 72
v 171 1
v 172 127
v 173 44
v 174 180
v 175 31
v 176 144
v 177 27
v 178 68
v 179 43
v 180 137
v 181 48
v 182 90
v 183 94
v 184 183
v 185 83
v 186 163
v 187 81
v 188 2
v 189 2
v 190 3
v 191 23
v 192 70
v 193 114
v 194 95
v 195 48
v 196 134
v 197 70
v 198 154
v 199 8
v 200 58
v 201 12
v 202 110
v 203 25
v 204 181
v 205 74
v 206 24
v 207 13
v 208 128
v 209 38
v 210 7
v 211 170
v 212 118
v 213 55
v 214 78
v 215 49
v 216 101
v 217 92
v 218 197
v 219 144
v 220 25
v 221 80
v 222 57
v 223 43
v 224 50
v 225 117
v 226 129
v 227 87
v 228 44
v 229 14
v 230 24
v 231 141
v 232 81
v 233 60
v 234 150
v 235 117
v 236 193
v 237 89
v 238 10
v 239 29
v 240 131
v 241 50
v 242 120
v 243 103
v 244 143
v 245 16
v 246 75
v 247 80
v 248 160
v 249 51
v 250 103
v 251 149
v 252 95
v 253 114
v 254 159
v 255 166
v 256 47
v 257 73
v 258 102
v 259 162
v 260 67
v 261 111
v 262 14
v 263 131
v 264 138
v 265 126
v 266 156
v 267 84
v 268 126
v 269 143
v 270 31
v 271 71
v 272 57
v 273 31
v 274 115
v 275 12
v 276 28
v 277 130
v 278 73
v 279 68
v 280 77
v 281 152
v 282 7
v 283 148
v 284 82
v 285 13
v 286 72
v 287 150
v 288 21
v 289 36
v 290 123
v 291 86
v 292 156
v 293 72
v 294 60
v 295 62
v 296 137
v 297 155
v 298 26
v 299 45
v 300 37
v 301 125
v 302 45
v 303 154
v 304 74
v 305 82
v 306 77
v 307 158
v 308 74
v 309 140
v 310 66
v 311 18
v 312 82
v 313 111
v 314 182
v 315 139
v 316 107
v 317 81
v 318 192
v 319 63
v 320 179
v 321 49
v 322 85
v 323 160
v 324 158
v 325 120
v 326 132
v 327 42
v 328 92
v 329 59
v 330 10
v 331 123
v 332 126
v 333 162
v 334 152
v 335 83
v 336 130
v 337 194
v 338 21
v 339 93
v 340 64
v 341 34
v 342 167
v 343 83
v 344 53
v 345 46
v 346 175
v 347 90
v 348 138
v 349 88
v 350 11
v 351 171
v 352 139
v 353 151
v 354 176
v 355 9
v 356 57
v 357 59
v 358 164
v 359 6
v 360 56
v 361 145
v 362 27
v 363 55
v 364 109
v 365 20
v 366 33
v 367 98
v 368 62
v 369 103
v 370 50
v 371 129
v 372 94
v 373 191
v 374 168
v 375 27
v 376 88
v 377 172
v 378 124
v 379 67
v 380 120
v 381 193
v 382 113
v 383 76
v 384 128
v 385 52
v 386 52
v 387 89
v 388 121
v 389 125
v 390 113
v 391 86
v 392 169
v 393 37
v 394 30
v 395 134
v 396 42
v 397 79
v 398 171
v 399 53
v 400 139
v 401 146
v 402 142
v 403 44
v 404 76
v 405 48
v 406 80
v 407 116
v 408 0
v 409 156
v 410 67
v 411 85
v 412 36
v 413 15
v 414 91
v 415 70
v 416 18
v 417 86
v 418 106
v 419 118
v 420 112
v 421 170
v 422 22
v 423 22
v 424 133
v 425 121
v 426 159
v 427 75
v 428 51
v 429 25
v 430 161
v 431 84
v 432 95
v 433 36
v 434 29
v 435 71
v 436 64
v 437 19
v 438 6
v 439 54
v 440 41
v 441 186
v 442 161
v 443 39
v 444 7
v 445 175
v 446 75
v 447 145
v 448 119
v 449 122
v 450 0
v 451 34
v 452 113
v 453 28
v 454 17
v 455 135
v 456 148
v 457 34
v 458 108
v 459 66
v 460 177
v 461 71
v 462 124
v 463 3
v 464 104
v 465 151
v 466 132
v 467 2
v 468 109
v 469 122
v 470 59
v 471 112
v 472 60
v 473 97
v 474 107
v 475 109
v 476 97
v 477 133
v 478 105
v 479 93
v 480 40
v 481 38
v 482 165
v 483 5
v 484 64
v 485 12
v 486 3
v 487 106
v 488 26
v 489 104
v 490 77
v 491 20
v 492 73
v 493 21
v 494 15
v 495 189
v 496 40
v 497 16
v 498 105
v 499 0
v 500 2
